VER
4

OBJSENSE
MIN

QCECONES
1 2
2
2 2 2 2 2
0

VAR
529 1
@0:SVECQCE 529

CON
138 1
L= 138

OBJACOORD
40
1 1.0
3 1.0
6 1.0
10 1.0
15 1.0
21 1.0
28 1.0
36 1.0
45 -1.0
55 -1.0
66 -1.0
78 -1.0
91 -1.0
105 -1.0
120 -1.0
136 -1.0
145 -2.8284271247461903
153 -1.0
163 -2.8284271247461903
171 -1.0
182 -2.8284271247461903
190 -1.0
202 -2.8284271247461903
210 -1.0
223 -2.8284271247461903
231 -1.0
245 -2.8284271247461903
253 -1.0
268 -2.8284271247461903
276 -1.0
292 -2.8284271247461903
300 -1.0
325 1.0
351 1.0
378 1.0
406 1.0
435 1.0
465 1.0
496 1.0
528 1.0

ACOORD
573
0 3 -1.0
0 153 1.0
1 2 1.0
1 4 -1.0
1 8 -1.0
1 170 1.0
2 3 1.0
2 6 -1.0
2 10 -1.0
2 171 1.0
3 4 1.0
3 11 -1.0
3 17 -1.0
3 188 1.0
4 5 1.0
4 13 -1.0
4 19 -1.0
4 189 1.0
5 6 1.0
5 15 -1.0
5 21 -1.0
5 190 1.0
6 7 1.0
6 22 -1.0
6 30 -1.0
6 207 1.0
7 8 1.0
7 24 -1.0
7 32 -1.0
7 208 1.0
8 9 1.0
8 26 -1.0
8 34 -1.0
8 209 1.0
9 10 1.0
9 28 -1.0
9 36 -1.0
9 210 1.0
10 11 1.0
10 37 -1.0
10 47 -1.0
10 227 1.0
11 12 1.0
11 39 -1.0
11 49 -1.0
11 228 1.0
12 13 1.0
12 41 -1.0
12 51 -1.0
12 229 1.0
13 14 1.0
13 43 -1.0
13 53 -1.0
13 230 1.0
14 15 1.0
14 45 -1.0
14 55 -1.0
14 231 1.0
15 16 1.0
15 56 -1.0
15 68 -1.0
15 248 1.0
16 17 1.0
16 58 -1.0
16 70 -1.0
16 249 1.0
17 18 1.0
17 60 -1.0
17 72 -1.0
17 250 1.0
18 19 1.0
18 62 -1.0
18 74 -1.0
18 251 1.0
19 20 1.0
19 64 -1.0
19 76 -1.0
19 252 1.0
20 21 1.0
20 66 -1.0
20 78 -1.0
20 253 1.0
21 22 1.0
21 79 -1.0
21 93 -1.0
21 270 1.0
22 23 1.0
22 81 -1.0
22 95 -1.0
22 271 1.0
23 24 1.0
23 83 -1.0
23 97 -1.0
23 272 1.0
24 25 1.0
24 85 -1.0
24 99 -1.0
24 273 1.0
25 26 1.0
25 87 -1.0
25 101 -1.0
25 274 1.0
26 27 1.0
26 89 -1.0
26 103 -1.0
26 275 1.0
27 28 1.0
27 91 -1.0
27 105 -1.0
27 276 1.0
28 29 1.0
28 106 -1.0
28 122 -1.0
28 293 1.0
29 30 1.0
29 108 -1.0
29 124 -1.0
29 294 1.0
30 31 1.0
30 110 -1.0
30 126 -1.0
30 295 1.0
31 32 1.0
31 112 -1.0
31 128 -1.0
31 296 1.0
32 33 1.0
32 114 -1.0
32 130 -1.0
32 297 1.0
33 34 1.0
33 116 -1.0
33 132 -1.0
33 298 1.0
34 35 1.0
34 118 -1.0
34 134 -1.0
34 299 1.0
35 36 1.0
35 120 -1.0
35 136 -1.0
35 300 1.0
36 37 1.0
36 137 -1.0
36 155 -1.0
36 317 1.0
37 38 1.0
37 139 -1.0
37 157 -1.0
37 318 1.0
38 39 1.0
38 141 -1.0
38 159 -1.0
38 319 1.0
39 40 1.0
39 143 -1.0
39 161 -1.0
39 320 1.0
40 41 1.0
40 145 -1.0
40 163 -1.0
40 321 1.0
41 42 1.0
41 147 -1.0
41 165 -1.0
41 322 1.0
42 43 1.0
42 149 -1.0
42 167 -1.0
42 323 1.0
43 44 1.0
43 151 -1.0
43 169 -1.0
43 324 1.0
44 45 1.0
44 153 -1.0
44 171 -1.0
44 325 1.0
45 46 1.0
45 172 -1.0
45 192 -1.0
45 342 1.0
46 47 1.0
46 174 -1.0
46 194 -1.0
46 343 1.0
47 48 1.0
47 176 -1.0
47 196 -1.0
47 344 1.0
48 49 1.0
48 178 -1.0
48 198 -1.0
48 345 1.0
49 50 1.0
49 180 -1.0
49 200 -1.0
49 346 1.0
50 51 1.0
50 182 -1.0
50 202 -1.0
50 347 1.0
51 52 1.0
51 184 -1.0
51 204 -1.0
51 348 1.0
52 53 1.0
52 186 -1.0
52 206 -1.0
52 349 1.0
53 54 1.0
53 188 -1.0
53 208 -1.0
53 350 1.0
54 55 1.0
54 190 -1.0
54 210 -1.0
54 351 1.0
55 56 1.0
55 211 -1.0
55 233 -1.0
55 368 1.0
56 57 1.0
56 213 -1.0
56 235 -1.0
56 369 1.0
57 58 1.0
57 215 -1.0
57 237 -1.0
57 370 1.0
58 59 1.0
58 217 -1.0
58 239 -1.0
58 371 1.0
59 60 1.0
59 219 -1.0
59 241 -1.0
59 372 1.0
60 61 1.0
60 221 -1.0
60 243 -1.0
60 373 1.0
61 62 1.0
61 223 -1.0
61 245 -1.0
61 374 1.0
62 63 1.0
62 225 -1.0
62 247 -1.0
62 375 1.0
63 64 1.0
63 227 -1.0
63 249 -1.0
63 376 1.0
64 65 1.0
64 229 -1.0
64 251 -1.0
64 377 1.0
65 66 1.0
65 231 -1.0
65 253 -1.0
65 378 1.0
66 67 1.0
66 254 -1.0
66 278 -1.0
66 395 1.0
67 68 1.0
67 256 -1.0
67 280 -1.0
67 396 1.0
68 69 1.0
68 258 -1.0
68 282 -1.0
68 397 1.0
69 70 1.0
69 260 -1.0
69 284 -1.0
69 398 1.0
70 71 1.0
70 262 -1.0
70 286 -1.0
70 399 1.0
71 72 1.0
71 264 -1.0
71 288 -1.0
71 400 1.0
72 73 1.0
72 266 -1.0
72 290 -1.0
72 401 1.0
73 74 1.0
73 268 -1.0
73 292 -1.0
73 402 1.0
74 75 1.0
74 270 -1.0
74 294 -1.0
74 403 1.0
75 76 1.0
75 272 -1.0
75 296 -1.0
75 404 1.0
76 77 1.0
76 274 -1.0
76 298 -1.0
76 405 1.0
77 78 1.0
77 276 -1.0
77 300 -1.0
77 406 1.0
78 79 1.0
78 301 -1.0
78 327 -1.0
78 423 1.0
79 80 1.0
79 303 -1.0
79 329 -1.0
79 424 1.0
80 81 1.0
80 305 -1.0
80 331 -1.0
80 425 1.0
81 82 1.0
81 307 -1.0
81 333 -1.0
81 426 1.0
82 83 1.0
82 309 -1.0
82 335 -1.0
82 427 1.0
83 84 1.0
83 311 -1.0
83 337 -1.0
83 428 1.0
84 85 1.0
84 313 -1.0
84 339 -1.0
84 429 1.0
85 86 1.0
85 315 -1.0
85 341 -1.0
85 430 1.0
86 87 1.0
86 317 -1.0
86 343 -1.0
86 431 1.0
87 88 1.0
87 319 -1.0
87 345 -1.0
87 432 1.0
88 89 1.0
88 321 -1.0
88 347 -1.0
88 433 1.0
89 90 1.0
89 323 -1.0
89 349 -1.0
89 434 1.0
90 91 1.0
90 325 -1.0
90 351 -1.0
90 435 1.0
91 92 1.0
91 352 -1.0
91 380 -1.0
91 452 1.0
92 93 1.0
92 354 -1.0
92 382 -1.0
92 453 1.0
93 94 1.0
93 356 -1.0
93 384 -1.0
93 454 1.0
94 95 1.0
94 358 -1.0
94 386 -1.0
94 455 1.0
95 96 1.0
95 360 -1.0
95 388 -1.0
95 456 1.0
96 97 1.0
96 362 -1.0
96 390 -1.0
96 457 1.0
97 98 1.0
97 364 -1.0
97 392 -1.0
97 458 1.0
98 99 1.0
98 366 -1.0
98 394 -1.0
98 459 1.0
99 100 1.0
99 368 -1.0
99 396 -1.0
99 460 1.0
100 101 1.0
100 370 -1.0
100 398 -1.0
100 461 1.0
101 102 1.0
101 372 -1.0
101 400 -1.0
101 462 1.0
102 103 1.0
102 374 -1.0
102 402 -1.0
102 463 1.0
103 104 1.0
103 376 -1.0
103 404 -1.0
103 464 1.0
104 105 1.0
104 378 -1.0
104 406 -1.0
104 465 1.0
105 106 1.0
105 407 -1.0
105 437 -1.0
105 482 1.0
106 107 1.0
106 409 -1.0
106 439 -1.0
106 483 1.0
107 108 1.0
107 411 -1.0
107 441 -1.0
107 484 1.0
108 109 1.0
108 413 -1.0
108 443 -1.0
108 485 1.0
109 110 1.0
109 415 -1.0
109 445 -1.0
109 486 1.0
110 111 1.0
110 417 -1.0
110 447 -1.0
110 487 1.0
111 112 1.0
111 419 -1.0
111 449 -1.0
111 488 1.0
112 113 1.0
112 421 -1.0
112 451 -1.0
112 489 1.0
113 114 1.0
113 423 -1.0
113 453 -1.0
113 490 1.0
114 115 1.0
114 425 -1.0
114 455 -1.0
114 491 1.0
115 116 1.0
115 427 -1.0
115 457 -1.0
115 492 1.0
116 117 1.0
116 429 -1.0
116 459 -1.0
116 493 1.0
117 118 1.0
117 431 -1.0
117 461 -1.0
117 494 1.0
118 119 1.0
118 433 -1.0
118 463 -1.0
118 495 1.0
119 120 1.0
119 435 -1.0
119 465 -1.0
119 496 1.0
120 121 1.0
120 466 -1.0
120 498 -1.0
120 513 1.0
121 122 1.0
121 468 -1.0
121 500 -1.0
121 514 1.0
122 123 1.0
122 470 -1.0
122 502 -1.0
122 515 1.0
123 124 1.0
123 472 -1.0
123 504 -1.0
123 516 1.0
124 125 1.0
124 474 -1.0
124 506 -1.0
124 517 1.0
125 126 1.0
125 476 -1.0
125 508 -1.0
125 518 1.0
126 127 1.0
126 478 -1.0
126 510 -1.0
126 519 1.0
127 128 1.0
127 480 -1.0
127 512 -1.0
127 520 1.0
128 129 1.0
128 482 -1.0
128 514 -1.0
128 521 1.0
129 130 1.0
129 484 -1.0
129 516 -1.0
129 522 1.0
130 131 1.0
130 486 -1.0
130 518 -1.0
130 523 1.0
131 132 1.0
131 488 -1.0
131 520 -1.0
131 524 1.0
132 133 1.0
132 490 -1.0
132 522 -1.0
132 525 1.0
133 134 1.0
133 492 -1.0
133 524 -1.0
133 526 1.0
134 135 1.0
134 494 -1.0
134 526 -1.0
134 527 1.0
135 136 1.0
135 496 -1.0
136 1 1.0
136 3 1.0
136 6 1.0
136 10 1.0
136 15 1.0
136 21 1.0
136 28 1.0
136 36 1.0
136 45 1.0
136 55 1.0
136 66 1.0
136 78 1.0
136 91 1.0
136 105 1.0
136 120 1.0
136 136 1.0
136 153 1.0
136 171 1.0
136 190 1.0
136 210 1.0
136 231 1.0
136 253 1.0
136 276 1.0
136 300 1.0
136 325 1.0
136 351 1.0
136 378 1.0
136 406 1.0
136 435 1.0
136 465 1.0
136 496 1.0
136 528 1.0
137 0 1.0

BCOORD
1
136 1.0
